nNurses = 112;
nHours = 28;
minHours = 10;
maxHours = 11;
maxConsec = 8;
maxPresence = 15;
demand = [12, 7, 6, 10, 12, 8, 8, 5, 9, 7, 11, 14, 15, 19, 19, 22, 22, 21, 24, 20, 23, 19, 17, 12, 8, 9, 8, 6];
